% File represents an instance of a Composite Structure problem to be solved by a CP framework
% Created on 2025-03-26 10:41:15.875
T = 50;
n = 9;
m = 12;
edges = [(1, 2),
(4, 5),
(7, 8),
(2, 3),
(5, 6),
(8, 9),
(4, 1),
(4, 7),
(5, 2),
(5, 8),
(6, 3),
(6, 9)];
counts = [|14, 6, 14, 10,
|12, 6, 12, 8,
|12, 6, 12, 2,
|14, 8, 14, 14,
|14, 8, 14, 8,
|12, 6, 12, 8,
|12, 6, 12, 14,
|12, 6, 12, 8,
|12, 6, 12, 4|];
